NAME interKP-200-100-4-5.mps
OBJSENSE
 MIN
ROWS
 N COST
 L leaderCons
 L followerCons
 L inter0
 L inter1
 L inter2
 L inter3
 L inter4
 L inter5
 L inter6
 L inter7
 L inter8
 L inter9
 L inter10
 L inter11
 L inter12
 L inter13
 L inter14
 L inter15
 L inter16
 L inter17
 L inter18
 L inter19
 L inter20
 L inter21
 L inter22
 L inter23
 L inter24
 L inter25
 L inter26
 L inter27
 L inter28
 L inter29
 L inter30
 L inter31
 L inter32
 L inter33
 L inter34
 L inter35
 L inter36
 L inter37
 L inter38
 L inter39
 L inter40
 L inter41
 L inter42
 L inter43
 L inter44
 L inter45
 L inter46
 L inter47
 L inter48
 L inter49
 L inter50
 L inter51
 L inter52
 L inter53
 L inter54
 L inter55
 L inter56
 L inter57
 L inter58
 L inter59
 L inter60
 L inter61
 L inter62
 L inter63
 L inter64
 L inter65
 L inter66
 L inter67
 L inter68
 L inter69
 L inter70
 L inter71
 L inter72
 L inter73
 L inter74
 L inter75
 L inter76
 L inter77
 L inter78
 L inter79
 L inter80
 L inter81
 L inter82
 L inter83
 L inter84
 L inter85
 L inter86
 L inter87
 L inter88
 L inter89
 L inter90
 L inter91
 L inter92
 L inter93
 L inter94
 L inter95
 L inter96
 L inter97
 L inter98
 L inter99
 L inter100
 L inter101
 L inter102
 L inter103
 L inter104
 L inter105
 L inter106
 L inter107
 L inter108
 L inter109
 L inter110
 L inter111
 L inter112
 L inter113
 L inter114
 L inter115
 L inter116
 L inter117
 L inter118
 L inter119
 L inter120
 L inter121
 L inter122
 L inter123
 L inter124
 L inter125
 L inter126
 L inter127
 L inter128
 L inter129
 L inter130
 L inter131
 L inter132
 L inter133
 L inter134
 L inter135
 L inter136
 L inter137
 L inter138
 L inter139
 L inter140
 L inter141
 L inter142
 L inter143
 L inter144
 L inter145
 L inter146
 L inter147
 L inter148
 L inter149
 L inter150
 L inter151
 L inter152
 L inter153
 L inter154
 L inter155
 L inter156
 L inter157
 L inter158
 L inter159
 L inter160
 L inter161
 L inter162
 L inter163
 L inter164
 L inter165
 L inter166
 L inter167
 L inter168
 L inter169
 L inter170
 L inter171
 L inter172
 L inter173
 L inter174
 L inter175
 L inter176
 L inter177
 L inter178
 L inter179
 L inter180
 L inter181
 L inter182
 L inter183
 L inter184
 L inter185
 L inter186
 L inter187
 L inter188
 L inter189
 L inter190
 L inter191
 L inter192
 L inter193
 L inter194
 L inter195
 L inter196
 L inter197
 L inter198
 L inter199
COLUMNS
 x0 COST 0
 x0 leaderCons 0
 x0 inter0 1
 x1 COST 0
 x1 leaderCons 18
 x1 inter1 1
 x2 COST 0
 x2 leaderCons 51
 x2 inter2 1
 x3 COST 0
 x3 leaderCons 38
 x3 inter3 1
 x4 COST 0
 x4 leaderCons 62
 x4 inter4 1
 x5 COST 0
 x5 leaderCons 4
 x5 inter5 1
 x6 COST 0
 x6 leaderCons 85
 x6 inter6 1
 x7 COST 0
 x7 leaderCons 69
 x7 inter7 1
 x8 COST 0
 x8 leaderCons 56
 x8 inter8 1
 x9 COST 0
 x9 leaderCons 18
 x9 inter9 1
 x10 COST 0
 x10 leaderCons 1
 x10 inter10 1
 x11 COST 0
 x11 leaderCons 13
 x11 inter11 1
 x12 COST 0
 x12 leaderCons 81
 x12 inter12 1
 x13 COST 0
 x13 leaderCons 89
 x13 inter13 1
 x14 COST 0
 x14 leaderCons 37
 x14 inter14 1
 x15 COST 0
 x15 leaderCons 32
 x15 inter15 1
 x16 COST 0
 x16 leaderCons 30
 x16 inter16 1
 x17 COST 0
 x17 leaderCons 79
 x17 inter17 1
 x18 COST 0
 x18 leaderCons 62
 x18 inter18 1
 x19 COST 0
 x19 leaderCons 97
 x19 inter19 1
 x20 COST 0
 x20 leaderCons 4
 x20 inter20 1
 x21 COST 0
 x21 leaderCons 10
 x21 inter21 1
 x22 COST 0
 x22 leaderCons 24
 x22 inter22 1
 x23 COST 0
 x23 leaderCons 9
 x23 inter23 1
 x24 COST 0
 x24 leaderCons 27
 x24 inter24 1
 x25 COST 0
 x25 leaderCons 54
 x25 inter25 1
 x26 COST 0
 x26 leaderCons 95
 x26 inter26 1
 x27 COST 0
 x27 leaderCons 87
 x27 inter27 1
 x28 COST 0
 x28 leaderCons 38
 x28 inter28 1
 x29 COST 0
 x29 leaderCons 14
 x29 inter29 1
 x30 COST 0
 x30 leaderCons 55
 x30 inter30 1
 x31 COST 0
 x31 leaderCons 48
 x31 inter31 1
 x32 COST 0
 x32 leaderCons 40
 x32 inter32 1
 x33 COST 0
 x33 leaderCons 85
 x33 inter33 1
 x34 COST 0
 x34 leaderCons 14
 x34 inter34 1
 x35 COST 0
 x35 leaderCons 62
 x35 inter35 1
 x36 COST 0
 x36 leaderCons 72
 x36 inter36 1
 x37 COST 0
 x37 leaderCons 62
 x37 inter37 1
 x38 COST 0
 x38 leaderCons 98
 x38 inter38 1
 x39 COST 0
 x39 leaderCons 18
 x39 inter39 1
 x40 COST 0
 x40 leaderCons 22
 x40 inter40 1
 x41 COST 0
 x41 leaderCons 93
 x41 inter41 1
 x42 COST 0
 x42 leaderCons 74
 x42 inter42 1
 x43 COST 0
 x43 leaderCons 81
 x43 inter43 1
 x44 COST 0
 x44 leaderCons 67
 x44 inter44 1
 x45 COST 0
 x45 leaderCons 57
 x45 inter45 1
 x46 COST 0
 x46 leaderCons 58
 x46 inter46 1
 x47 COST 0
 x47 leaderCons 44
 x47 inter47 1
 x48 COST 0
 x48 leaderCons 7
 x48 inter48 1
 x49 COST 0
 x49 leaderCons 94
 x49 inter49 1
 x50 COST 0
 x50 leaderCons 3
 x50 inter50 1
 x51 COST 0
 x51 leaderCons 60
 x51 inter51 1
 x52 COST 0
 x52 leaderCons 94
 x52 inter52 1
 x53 COST 0
 x53 leaderCons 96
 x53 inter53 1
 x54 COST 0
 x54 leaderCons 24
 x54 inter54 1
 x55 COST 0
 x55 leaderCons 53
 x55 inter55 1
 x56 COST 0
 x56 leaderCons 12
 x56 inter56 1
 x57 COST 0
 x57 leaderCons 42
 x57 inter57 1
 x58 COST 0
 x58 leaderCons 84
 x58 inter58 1
 x59 COST 0
 x59 leaderCons 92
 x59 inter59 1
 x60 COST 0
 x60 leaderCons 42
 x60 inter60 1
 x61 COST 0
 x61 leaderCons 50
 x61 inter61 1
 x62 COST 0
 x62 leaderCons 89
 x62 inter62 1
 x63 COST 0
 x63 leaderCons 0
 x63 inter63 1
 x64 COST 0
 x64 leaderCons 3
 x64 inter64 1
 x65 COST 0
 x65 leaderCons 22
 x65 inter65 1
 x66 COST 0
 x66 leaderCons 15
 x66 inter66 1
 x67 COST 0
 x67 leaderCons 33
 x67 inter67 1
 x68 COST 0
 x68 leaderCons 63
 x68 inter68 1
 x69 COST 0
 x69 leaderCons 52
 x69 inter69 1
 x70 COST 0
 x70 leaderCons 46
 x70 inter70 1
 x71 COST 0
 x71 leaderCons 67
 x71 inter71 1
 x72 COST 0
 x72 leaderCons 44
 x72 inter72 1
 x73 COST 0
 x73 leaderCons 27
 x73 inter73 1
 x74 COST 0
 x74 leaderCons 56
 x74 inter74 1
 x75 COST 0
 x75 leaderCons 78
 x75 inter75 1
 x76 COST 0
 x76 leaderCons 86
 x76 inter76 1
 x77 COST 0
 x77 leaderCons 57
 x77 inter77 1
 x78 COST 0
 x78 leaderCons 67
 x78 inter78 1
 x79 COST 0
 x79 leaderCons 52
 x79 inter79 1
 x80 COST 0
 x80 leaderCons 81
 x80 inter80 1
 x81 COST 0
 x81 leaderCons 73
 x81 inter81 1
 x82 COST 0
 x82 leaderCons 48
 x82 inter82 1
 x83 COST 0
 x83 leaderCons 5
 x83 inter83 1
 x84 COST 0
 x84 leaderCons 43
 x84 inter84 1
 x85 COST 0
 x85 leaderCons 54
 x85 inter85 1
 x86 COST 0
 x86 leaderCons 13
 x86 inter86 1
 x87 COST 0
 x87 leaderCons 48
 x87 inter87 1
 x88 COST 0
 x88 leaderCons 39
 x88 inter88 1
 x89 COST 0
 x89 leaderCons 11
 x89 inter89 1
 x90 COST 0
 x90 leaderCons 41
 x90 inter90 1
 x91 COST 0
 x91 leaderCons 70
 x91 inter91 1
 x92 COST 0
 x92 leaderCons 62
 x92 inter92 1
 x93 COST 0
 x93 leaderCons 71
 x93 inter93 1
 x94 COST 0
 x94 leaderCons 50
 x94 inter94 1
 x95 COST 0
 x95 leaderCons 86
 x95 inter95 1
 x96 COST 0
 x96 leaderCons 96
 x96 inter96 1
 x97 COST 0
 x97 leaderCons 21
 x97 inter97 1
 x98 COST 0
 x98 leaderCons 72
 x98 inter98 1
 x99 COST 0
 x99 leaderCons 36
 x99 inter99 1
 x100 COST 0
 x100 leaderCons 27
 x100 inter100 1
 x101 COST 0
 x101 leaderCons 36
 x101 inter101 1
 x102 COST 0
 x102 leaderCons 45
 x102 inter102 1
 x103 COST 0
 x103 leaderCons 24
 x103 inter103 1
 x104 COST 0
 x104 leaderCons 13
 x104 inter104 1
 x105 COST 0
 x105 leaderCons 16
 x105 inter105 1
 x106 COST 0
 x106 leaderCons 61
 x106 inter106 1
 x107 COST 0
 x107 leaderCons 44
 x107 inter107 1
 x108 COST 0
 x108 leaderCons 12
 x108 inter108 1
 x109 COST 0
 x109 leaderCons 80
 x109 inter109 1
 x110 COST 0
 x110 leaderCons 16
 x110 inter110 1
 x111 COST 0
 x111 leaderCons 66
 x111 inter111 1
 x112 COST 0
 x112 leaderCons 27
 x112 inter112 1
 x113 COST 0
 x113 leaderCons 21
 x113 inter113 1
 x114 COST 0
 x114 leaderCons 26
 x114 inter114 1
 x115 COST 0
 x115 leaderCons 83
 x115 inter115 1
 x116 COST 0
 x116 leaderCons 91
 x116 inter116 1
 x117 COST 0
 x117 leaderCons 97
 x117 inter117 1
 x118 COST 0
 x118 leaderCons 12
 x118 inter118 1
 x119 COST 0
 x119 leaderCons 44
 x119 inter119 1
 x120 COST 0
 x120 leaderCons 27
 x120 inter120 1
 x121 COST 0
 x121 leaderCons 34
 x121 inter121 1
 x122 COST 0
 x122 leaderCons 26
 x122 inter122 1
 x123 COST 0
 x123 leaderCons 48
 x123 inter123 1
 x124 COST 0
 x124 leaderCons 50
 x124 inter124 1
 x125 COST 0
 x125 leaderCons 57
 x125 inter125 1
 x126 COST 0
 x126 leaderCons 33
 x126 inter126 1
 x127 COST 0
 x127 leaderCons 60
 x127 inter127 1
 x128 COST 0
 x128 leaderCons 8
 x128 inter128 1
 x129 COST 0
 x129 leaderCons 86
 x129 inter129 1
 x130 COST 0
 x130 leaderCons 82
 x130 inter130 1
 x131 COST 0
 x131 leaderCons 83
 x131 inter131 1
 x132 COST 0
 x132 leaderCons 64
 x132 inter132 1
 x133 COST 0
 x133 leaderCons 55
 x133 inter133 1
 x134 COST 0
 x134 leaderCons 52
 x134 inter134 1
 x135 COST 0
 x135 leaderCons 1
 x135 inter135 1
 x136 COST 0
 x136 leaderCons 33
 x136 inter136 1
 x137 COST 0
 x137 leaderCons 69
 x137 inter137 1
 x138 COST 0
 x138 leaderCons 31
 x138 inter138 1
 x139 COST 0
 x139 leaderCons 46
 x139 inter139 1
 x140 COST 0
 x140 leaderCons 23
 x140 inter140 1
 x141 COST 0
 x141 leaderCons 11
 x141 inter141 1
 x142 COST 0
 x142 leaderCons 18
 x142 inter142 1
 x143 COST 0
 x143 leaderCons 93
 x143 inter143 1
 x144 COST 0
 x144 leaderCons 37
 x144 inter144 1
 x145 COST 0
 x145 leaderCons 61
 x145 inter145 1
 x146 COST 0
 x146 leaderCons 24
 x146 inter146 1
 x147 COST 0
 x147 leaderCons 71
 x147 inter147 1
 x148 COST 0
 x148 leaderCons 58
 x148 inter148 1
 x149 COST 0
 x149 leaderCons 93
 x149 inter149 1
 x150 COST 0
 x150 leaderCons 71
 x150 inter150 1
 x151 COST 0
 x151 leaderCons 7
 x151 inter151 1
 x152 COST 0
 x152 leaderCons 57
 x152 inter152 1
 x153 COST 0
 x153 leaderCons 73
 x153 inter153 1
 x154 COST 0
 x154 leaderCons 34
 x154 inter154 1
 x155 COST 0
 x155 leaderCons 27
 x155 inter155 1
 x156 COST 0
 x156 leaderCons 98
 x156 inter156 1
 x157 COST 0
 x157 leaderCons 30
 x157 inter157 1
 x158 COST 0
 x158 leaderCons 34
 x158 inter158 1
 x159 COST 0
 x159 leaderCons 21
 x159 inter159 1
 x160 COST 0
 x160 leaderCons 94
 x160 inter160 1
 x161 COST 0
 x161 leaderCons 86
 x161 inter161 1
 x162 COST 0
 x162 leaderCons 0
 x162 inter162 1
 x163 COST 0
 x163 leaderCons 57
 x163 inter163 1
 x164 COST 0
 x164 leaderCons 66
 x164 inter164 1
 x165 COST 0
 x165 leaderCons 4
 x165 inter165 1
 x166 COST 0
 x166 leaderCons 61
 x166 inter166 1
 x167 COST 0
 x167 leaderCons 6
 x167 inter167 1
 x168 COST 0
 x168 leaderCons 49
 x168 inter168 1
 x169 COST 0
 x169 leaderCons 60
 x169 inter169 1
 x170 COST 0
 x170 leaderCons 94
 x170 inter170 1
 x171 COST 0
 x171 leaderCons 89
 x171 inter171 1
 x172 COST 0
 x172 leaderCons 28
 x172 inter172 1
 x173 COST 0
 x173 leaderCons 34
 x173 inter173 1
 x174 COST 0
 x174 leaderCons 47
 x174 inter174 1
 x175 COST 0
 x175 leaderCons 12
 x175 inter175 1
 x176 COST 0
 x176 leaderCons 36
 x176 inter176 1
 x177 COST 0
 x177 leaderCons 81
 x177 inter177 1
 x178 COST 0
 x178 leaderCons 40
 x178 inter178 1
 x179 COST 0
 x179 leaderCons 41
 x179 inter179 1
 x180 COST 0
 x180 leaderCons 4
 x180 inter180 1
 x181 COST 0
 x181 leaderCons 17
 x181 inter181 1
 x182 COST 0
 x182 leaderCons 80
 x182 inter182 1
 x183 COST 0
 x183 leaderCons 55
 x183 inter183 1
 x184 COST 0
 x184 leaderCons 0
 x184 inter184 1
 x185 COST 0
 x185 leaderCons 2
 x185 inter185 1
 x186 COST 0
 x186 leaderCons 34
 x186 inter186 1
 x187 COST 0
 x187 leaderCons 30
 x187 inter187 1
 x188 COST 0
 x188 leaderCons 25
 x188 inter188 1
 x189 COST 0
 x189 leaderCons 93
 x189 inter189 1
 x190 COST 0
 x190 leaderCons 57
 x190 inter190 1
 x191 COST 0
 x191 leaderCons 68
 x191 inter191 1
 x192 COST 0
 x192 leaderCons 39
 x192 inter192 1
 x193 COST 0
 x193 leaderCons 24
 x193 inter193 1
 x194 COST 0
 x194 leaderCons 51
 x194 inter194 1
 x195 COST 0
 x195 leaderCons 59
 x195 inter195 1
 x196 COST 0
 x196 leaderCons 49
 x196 inter196 1
 x197 COST 0
 x197 leaderCons 49
 x197 inter197 1
 x198 COST 0
 x198 leaderCons 30
 x198 inter198 1
 x199 COST 0
 x199 leaderCons 19
 x199 inter199 1
 y0 COST 41
 y0 followerCons 51
 y0 inter0 1
 y1 COST 93
 y1 followerCons 103
 y1 inter1 1
 y2 COST 81
 y2 followerCons 91
 y2 inter2 1
 y3 COST 24
 y3 followerCons 34
 y3 inter3 1
 y4 COST 74
 y4 followerCons 84
 y4 inter4 1
 y5 COST 14
 y5 followerCons 24
 y5 inter5 1
 y6 COST 22
 y6 followerCons 32
 y6 inter6 1
 y7 COST 21
 y7 followerCons 31
 y7 inter7 1
 y8 COST 51
 y8 followerCons 61
 y8 inter8 1
 y9 COST 80
 y9 followerCons 90
 y9 inter9 1
 y10 COST 17
 y10 followerCons 27
 y10 inter10 1
 y11 COST 77
 y11 followerCons 87
 y11 inter11 1
 y12 COST 24
 y12 followerCons 34
 y12 inter12 1
 y13 COST 11
 y13 followerCons 21
 y13 inter13 1
 y14 COST 19
 y14 followerCons 29
 y14 inter14 1
 y15 COST 81
 y15 followerCons 91
 y15 inter15 1
 y16 COST 38
 y16 followerCons 48
 y16 inter16 1
 y17 COST 43
 y17 followerCons 53
 y17 inter17 1
 y18 COST 36
 y18 followerCons 46
 y18 inter18 1
 y19 COST 50
 y19 followerCons 60
 y19 inter19 1
 y20 COST 58
 y20 followerCons 68
 y20 inter20 1
 y21 COST 31
 y21 followerCons 41
 y21 inter21 1
 y22 COST 16
 y22 followerCons 26
 y22 inter22 1
 y23 COST 27
 y23 followerCons 37
 y23 inter23 1
 y24 COST 25
 y24 followerCons 35
 y24 inter24 1
 y25 COST 88
 y25 followerCons 98
 y25 inter25 1
 y26 COST 61
 y26 followerCons 71
 y26 inter26 1
 y27 COST 13
 y27 followerCons 23
 y27 inter27 1
 y28 COST 93
 y28 followerCons 103
 y28 inter28 1
 y29 COST 99
 y29 followerCons 109
 y29 inter29 1
 y30 COST 69
 y30 followerCons 79
 y30 inter30 1
 y31 COST 52
 y31 followerCons 62
 y31 inter31 1
 y32 COST 43
 y32 followerCons 53
 y32 inter32 1
 y33 COST 64
 y33 followerCons 74
 y33 inter33 1
 y34 COST 24
 y34 followerCons 34
 y34 inter34 1
 y35 COST 17
 y35 followerCons 27
 y35 inter35 1
 y36 COST 57
 y36 followerCons 67
 y36 inter36 1
 y37 COST 20
 y37 followerCons 30
 y37 inter37 1
 y38 COST 32
 y38 followerCons 42
 y38 inter38 1
 y39 COST 76
 y39 followerCons 86
 y39 inter39 1
 y40 COST 12
 y40 followerCons 22
 y40 inter40 1
 y41 COST 54
 y41 followerCons 64
 y41 inter41 1
 y42 COST 97
 y42 followerCons 107
 y42 inter42 1
 y43 COST 25
 y43 followerCons 35
 y43 inter43 1
 y44 COST 94
 y44 followerCons 104
 y44 inter44 1
 y45 COST 46
 y45 followerCons 56
 y45 inter45 1
 y46 COST 8
 y46 followerCons 18
 y46 inter46 1
 y47 COST 3
 y47 followerCons 13
 y47 inter47 1
 y48 COST 89
 y48 followerCons 99
 y48 inter48 1
 y49 COST 58
 y49 followerCons 68
 y49 inter49 1
 y50 COST 55
 y50 followerCons 65
 y50 inter50 1
 y51 COST 37
 y51 followerCons 47
 y51 inter51 1
 y52 COST 80
 y52 followerCons 90
 y52 inter52 1
 y53 COST 51
 y53 followerCons 61
 y53 inter53 1
 y54 COST 94
 y54 followerCons 104
 y54 inter54 1
 y55 COST 28
 y55 followerCons 38
 y55 inter55 1
 y56 COST 15
 y56 followerCons 25
 y56 inter56 1
 y57 COST 16
 y57 followerCons 26
 y57 inter57 1
 y58 COST 14
 y58 followerCons 24
 y58 inter58 1
 y59 COST 66
 y59 followerCons 76
 y59 inter59 1
 y60 COST 79
 y60 followerCons 89
 y60 inter60 1
 y61 COST 74
 y61 followerCons 84
 y61 inter61 1
 y62 COST 86
 y62 followerCons 96
 y62 inter62 1
 y63 COST 70
 y63 followerCons 80
 y63 inter63 1
 y64 COST 29
 y64 followerCons 39
 y64 inter64 1
 y65 COST 40
 y65 followerCons 50
 y65 inter65 1
 y66 COST 69
 y66 followerCons 79
 y66 inter66 1
 y67 COST 4
 y67 followerCons 14
 y67 inter67 1
 y68 COST 79
 y68 followerCons 89
 y68 inter68 1
 y69 COST 66
 y69 followerCons 76
 y69 inter69 1
 y70 COST 27
 y70 followerCons 37
 y70 inter70 1
 y71 COST 36
 y71 followerCons 46
 y71 inter71 1
 y72 COST 77
 y72 followerCons 87
 y72 inter72 1
 y73 COST 74
 y73 followerCons 84
 y73 inter73 1
 y74 COST 87
 y74 followerCons 97
 y74 inter74 1
 y75 COST 75
 y75 followerCons 85
 y75 inter75 1
 y76 COST 29
 y76 followerCons 39
 y76 inter76 1
 y77 COST 2
 y77 followerCons 12
 y77 inter77 1
 y78 COST 74
 y78 followerCons 84
 y78 inter78 1
 y79 COST 59
 y79 followerCons 69
 y79 inter79 1
 y80 COST 30
 y80 followerCons 40
 y80 inter80 1
 y81 COST 9
 y81 followerCons 19
 y81 inter81 1
 y82 COST 65
 y82 followerCons 75
 y82 inter82 1
 y83 COST 5
 y83 followerCons 15
 y83 inter83 1
 y84 COST 67
 y84 followerCons 77
 y84 inter84 1
 y85 COST 60
 y85 followerCons 70
 y85 inter85 1
 y86 COST 63
 y86 followerCons 73
 y86 inter86 1
 y87 COST 28
 y87 followerCons 38
 y87 inter87 1
 y88 COST 100
 y88 followerCons 110
 y88 inter88 1
 y89 COST 21
 y89 followerCons 31
 y89 inter89 1
 y90 COST 78
 y90 followerCons 88
 y90 inter90 1
 y91 COST 99
 y91 followerCons 109
 y91 inter91 1
 y92 COST 84
 y92 followerCons 94
 y92 inter92 1
 y93 COST 28
 y93 followerCons 38
 y93 inter93 1
 y94 COST 64
 y94 followerCons 74
 y94 inter94 1
 y95 COST 48
 y95 followerCons 58
 y95 inter95 1
 y96 COST 46
 y96 followerCons 56
 y96 inter96 1
 y97 COST 27
 y97 followerCons 37
 y97 inter97 1
 y98 COST 37
 y98 followerCons 47
 y98 inter98 1
 y99 COST 17
 y99 followerCons 27
 y99 inter99 1
 y100 COST 65
 y100 followerCons 75
 y100 inter100 1
 y101 COST 76
 y101 followerCons 86
 y101 inter101 1
 y102 COST 82
 y102 followerCons 92
 y102 inter102 1
 y103 COST 69
 y103 followerCons 79
 y103 inter103 1
 y104 COST 10
 y104 followerCons 20
 y104 inter104 1
 y105 COST 29
 y105 followerCons 39
 y105 inter105 1
 y106 COST 22
 y106 followerCons 32
 y106 inter106 1
 y107 COST 17
 y107 followerCons 27
 y107 inter107 1
 y108 COST 49
 y108 followerCons 59
 y108 inter108 1
 y109 COST 51
 y109 followerCons 61
 y109 inter109 1
 y110 COST 47
 y110 followerCons 57
 y110 inter110 1
 y111 COST 51
 y111 followerCons 61
 y111 inter111 1
 y112 COST 60
 y112 followerCons 70
 y112 inter112 1
 y113 COST 60
 y113 followerCons 70
 y113 inter113 1
 y114 COST 14
 y114 followerCons 24
 y114 inter114 1
 y115 COST 72
 y115 followerCons 82
 y115 inter115 1
 y116 COST 81
 y116 followerCons 91
 y116 inter116 1
 y117 COST 100
 y117 followerCons 110
 y117 inter117 1
 y118 COST 95
 y118 followerCons 105
 y118 inter118 1
 y119 COST 42
 y119 followerCons 52
 y119 inter119 1
 y120 COST 11
 y120 followerCons 21
 y120 inter120 1
 y121 COST 79
 y121 followerCons 89
 y121 inter121 1
 y122 COST 78
 y122 followerCons 88
 y122 inter122 1
 y123 COST 62
 y123 followerCons 72
 y123 inter123 1
 y124 COST 3
 y124 followerCons 13
 y124 inter124 1
 y125 COST 54
 y125 followerCons 64
 y125 inter125 1
 y126 COST 25
 y126 followerCons 35
 y126 inter126 1
 y127 COST 68
 y127 followerCons 78
 y127 inter127 1
 y128 COST 18
 y128 followerCons 28
 y128 inter128 1
 y129 COST 87
 y129 followerCons 97
 y129 inter129 1
 y130 COST 39
 y130 followerCons 49
 y130 inter130 1
 y131 COST 100
 y131 followerCons 110
 y131 inter131 1
 y132 COST 43
 y132 followerCons 53
 y132 inter132 1
 y133 COST 50
 y133 followerCons 60
 y133 inter133 1
 y134 COST 67
 y134 followerCons 77
 y134 inter134 1
 y135 COST 70
 y135 followerCons 80
 y135 inter135 1
 y136 COST 88
 y136 followerCons 98
 y136 inter136 1
 y137 COST 18
 y137 followerCons 28
 y137 inter137 1
 y138 COST 55
 y138 followerCons 65
 y138 inter138 1
 y139 COST 85
 y139 followerCons 95
 y139 inter139 1
 y140 COST 5
 y140 followerCons 15
 y140 inter140 1
 y141 COST 98
 y141 followerCons 108
 y141 inter141 1
 y142 COST 18
 y142 followerCons 28
 y142 inter142 1
 y143 COST 57
 y143 followerCons 67
 y143 inter143 1
 y144 COST 55
 y144 followerCons 65
 y144 inter144 1
 y145 COST 94
 y145 followerCons 104
 y145 inter145 1
 y146 COST 77
 y146 followerCons 87
 y146 inter146 1
 y147 COST 91
 y147 followerCons 101
 y147 inter147 1
 y148 COST 20
 y148 followerCons 30
 y148 inter148 1
 y149 COST 42
 y149 followerCons 52
 y149 inter149 1
 y150 COST 73
 y150 followerCons 83
 y150 inter150 1
 y151 COST 34
 y151 followerCons 44
 y151 inter151 1
 y152 COST 93
 y152 followerCons 103
 y152 inter152 1
 y153 COST 65
 y153 followerCons 75
 y153 inter153 1
 y154 COST 89
 y154 followerCons 99
 y154 inter154 1
 y155 COST 21
 y155 followerCons 31
 y155 inter155 1
 y156 COST 86
 y156 followerCons 96
 y156 inter156 1
 y157 COST 54
 y157 followerCons 64
 y157 inter157 1
 y158 COST 82
 y158 followerCons 92
 y158 inter158 1
 y159 COST 37
 y159 followerCons 47
 y159 inter159 1
 y160 COST 49
 y160 followerCons 59
 y160 inter160 1
 y161 COST 72
 y161 followerCons 82
 y161 inter161 1
 y162 COST 92
 y162 followerCons 102
 y162 inter162 1
 y163 COST 52
 y163 followerCons 62
 y163 inter163 1
 y164 COST 41
 y164 followerCons 51
 y164 inter164 1
 y165 COST 85
 y165 followerCons 95
 y165 inter165 1
 y166 COST 65
 y166 followerCons 75
 y166 inter166 1
 y167 COST 55
 y167 followerCons 65
 y167 inter167 1
 y168 COST 14
 y168 followerCons 24
 y168 inter168 1
 y169 COST 30
 y169 followerCons 40
 y169 inter169 1
 y170 COST 90
 y170 followerCons 100
 y170 inter170 1
 y171 COST 48
 y171 followerCons 58
 y171 inter171 1
 y172 COST 14
 y172 followerCons 24
 y172 inter172 1
 y173 COST 57
 y173 followerCons 67
 y173 inter173 1
 y174 COST 6
 y174 followerCons 16
 y174 inter174 1
 y175 COST 29
 y175 followerCons 39
 y175 inter175 1
 y176 COST 36
 y176 followerCons 46
 y176 inter176 1
 y177 COST 60
 y177 followerCons 70
 y177 inter177 1
 y178 COST 14
 y178 followerCons 24
 y178 inter178 1
 y179 COST 18
 y179 followerCons 28
 y179 inter179 1
 y180 COST 89
 y180 followerCons 99
 y180 inter180 1
 y181 COST 46
 y181 followerCons 56
 y181 inter181 1
 y182 COST 71
 y182 followerCons 81
 y182 inter182 1
 y183 COST 65
 y183 followerCons 75
 y183 inter183 1
 y184 COST 80
 y184 followerCons 90
 y184 inter184 1
 y185 COST 20
 y185 followerCons 30
 y185 inter185 1
 y186 COST 48
 y186 followerCons 58
 y186 inter186 1
 y187 COST 29
 y187 followerCons 39
 y187 inter187 1
 y188 COST 11
 y188 followerCons 21
 y188 inter188 1
 y189 COST 94
 y189 followerCons 104
 y189 inter189 1
 y190 COST 91
 y190 followerCons 101
 y190 inter190 1
 y191 COST 16
 y191 followerCons 26
 y191 inter191 1
 y192 COST 40
 y192 followerCons 50
 y192 inter192 1
 y193 COST 59
 y193 followerCons 69
 y193 inter193 1
 y194 COST 27
 y194 followerCons 37
 y194 inter194 1
 y195 COST 51
 y195 followerCons 61
 y195 inter195 1
 y196 COST 46
 y196 followerCons 56
 y196 inter196 1
 y197 COST 47
 y197 followerCons 57
 y197 inter197 1
 y198 COST 12
 y198 followerCons 22
 y198 inter198 1
 y199 COST 36
 y199 followerCons 46
 y199 inter199 1
RHS
 rhs leaderCons 5552
 rhs followerCons 5547
 rhs inter0 1
 rhs inter1 1
 rhs inter2 1
 rhs inter3 1
 rhs inter4 1
 rhs inter5 1
 rhs inter6 1
 rhs inter7 1
 rhs inter8 1
 rhs inter9 1
 rhs inter10 1
 rhs inter11 1
 rhs inter12 1
 rhs inter13 1
 rhs inter14 1
 rhs inter15 1
 rhs inter16 1
 rhs inter17 1
 rhs inter18 1
 rhs inter19 1
 rhs inter20 1
 rhs inter21 1
 rhs inter22 1
 rhs inter23 1
 rhs inter24 1
 rhs inter25 1
 rhs inter26 1
 rhs inter27 1
 rhs inter28 1
 rhs inter29 1
 rhs inter30 1
 rhs inter31 1
 rhs inter32 1
 rhs inter33 1
 rhs inter34 1
 rhs inter35 1
 rhs inter36 1
 rhs inter37 1
 rhs inter38 1
 rhs inter39 1
 rhs inter40 1
 rhs inter41 1
 rhs inter42 1
 rhs inter43 1
 rhs inter44 1
 rhs inter45 1
 rhs inter46 1
 rhs inter47 1
 rhs inter48 1
 rhs inter49 1
 rhs inter50 1
 rhs inter51 1
 rhs inter52 1
 rhs inter53 1
 rhs inter54 1
 rhs inter55 1
 rhs inter56 1
 rhs inter57 1
 rhs inter58 1
 rhs inter59 1
 rhs inter60 1
 rhs inter61 1
 rhs inter62 1
 rhs inter63 1
 rhs inter64 1
 rhs inter65 1
 rhs inter66 1
 rhs inter67 1
 rhs inter68 1
 rhs inter69 1
 rhs inter70 1
 rhs inter71 1
 rhs inter72 1
 rhs inter73 1
 rhs inter74 1
 rhs inter75 1
 rhs inter76 1
 rhs inter77 1
 rhs inter78 1
 rhs inter79 1
 rhs inter80 1
 rhs inter81 1
 rhs inter82 1
 rhs inter83 1
 rhs inter84 1
 rhs inter85 1
 rhs inter86 1
 rhs inter87 1
 rhs inter88 1
 rhs inter89 1
 rhs inter90 1
 rhs inter91 1
 rhs inter92 1
 rhs inter93 1
 rhs inter94 1
 rhs inter95 1
 rhs inter96 1
 rhs inter97 1
 rhs inter98 1
 rhs inter99 1
 rhs inter100 1
 rhs inter101 1
 rhs inter102 1
 rhs inter103 1
 rhs inter104 1
 rhs inter105 1
 rhs inter106 1
 rhs inter107 1
 rhs inter108 1
 rhs inter109 1
 rhs inter110 1
 rhs inter111 1
 rhs inter112 1
 rhs inter113 1
 rhs inter114 1
 rhs inter115 1
 rhs inter116 1
 rhs inter117 1
 rhs inter118 1
 rhs inter119 1
 rhs inter120 1
 rhs inter121 1
 rhs inter122 1
 rhs inter123 1
 rhs inter124 1
 rhs inter125 1
 rhs inter126 1
 rhs inter127 1
 rhs inter128 1
 rhs inter129 1
 rhs inter130 1
 rhs inter131 1
 rhs inter132 1
 rhs inter133 1
 rhs inter134 1
 rhs inter135 1
 rhs inter136 1
 rhs inter137 1
 rhs inter138 1
 rhs inter139 1
 rhs inter140 1
 rhs inter141 1
 rhs inter142 1
 rhs inter143 1
 rhs inter144 1
 rhs inter145 1
 rhs inter146 1
 rhs inter147 1
 rhs inter148 1
 rhs inter149 1
 rhs inter150 1
 rhs inter151 1
 rhs inter152 1
 rhs inter153 1
 rhs inter154 1
 rhs inter155 1
 rhs inter156 1
 rhs inter157 1
 rhs inter158 1
 rhs inter159 1
 rhs inter160 1
 rhs inter161 1
 rhs inter162 1
 rhs inter163 1
 rhs inter164 1
 rhs inter165 1
 rhs inter166 1
 rhs inter167 1
 rhs inter168 1
 rhs inter169 1
 rhs inter170 1
 rhs inter171 1
 rhs inter172 1
 rhs inter173 1
 rhs inter174 1
 rhs inter175 1
 rhs inter176 1
 rhs inter177 1
 rhs inter178 1
 rhs inter179 1
 rhs inter180 1
 rhs inter181 1
 rhs inter182 1
 rhs inter183 1
 rhs inter184 1
 rhs inter185 1
 rhs inter186 1
 rhs inter187 1
 rhs inter188 1
 rhs inter189 1
 rhs inter190 1
 rhs inter191 1
 rhs inter192 1
 rhs inter193 1
 rhs inter194 1
 rhs inter195 1
 rhs inter196 1
 rhs inter197 1
 rhs inter198 1
 rhs inter199 1
BOUNDS
 LI bound x0 0
 UI bound x0 1
 LI bound x1 0
 UI bound x1 1
 LI bound x2 0
 UI bound x2 1
 LI bound x3 0
 UI bound x3 1
 LI bound x4 0
 UI bound x4 1
 LI bound x5 0
 UI bound x5 1
 LI bound x6 0
 UI bound x6 1
 LI bound x7 0
 UI bound x7 1
 LI bound x8 0
 UI bound x8 1
 LI bound x9 0
 UI bound x9 1
 LI bound x10 0
 UI bound x10 1
 LI bound x11 0
 UI bound x11 1
 LI bound x12 0
 UI bound x12 1
 LI bound x13 0
 UI bound x13 1
 LI bound x14 0
 UI bound x14 1
 LI bound x15 0
 UI bound x15 1
 LI bound x16 0
 UI bound x16 1
 LI bound x17 0
 UI bound x17 1
 LI bound x18 0
 UI bound x18 1
 LI bound x19 0
 UI bound x19 1
 LI bound x20 0
 UI bound x20 1
 LI bound x21 0
 UI bound x21 1
 LI bound x22 0
 UI bound x22 1
 LI bound x23 0
 UI bound x23 1
 LI bound x24 0
 UI bound x24 1
 LI bound x25 0
 UI bound x25 1
 LI bound x26 0
 UI bound x26 1
 LI bound x27 0
 UI bound x27 1
 LI bound x28 0
 UI bound x28 1
 LI bound x29 0
 UI bound x29 1
 LI bound x30 0
 UI bound x30 1
 LI bound x31 0
 UI bound x31 1
 LI bound x32 0
 UI bound x32 1
 LI bound x33 0
 UI bound x33 1
 LI bound x34 0
 UI bound x34 1
 LI bound x35 0
 UI bound x35 1
 LI bound x36 0
 UI bound x36 1
 LI bound x37 0
 UI bound x37 1
 LI bound x38 0
 UI bound x38 1
 LI bound x39 0
 UI bound x39 1
 LI bound x40 0
 UI bound x40 1
 LI bound x41 0
 UI bound x41 1
 LI bound x42 0
 UI bound x42 1
 LI bound x43 0
 UI bound x43 1
 LI bound x44 0
 UI bound x44 1
 LI bound x45 0
 UI bound x45 1
 LI bound x46 0
 UI bound x46 1
 LI bound x47 0
 UI bound x47 1
 LI bound x48 0
 UI bound x48 1
 LI bound x49 0
 UI bound x49 1
 LI bound x50 0
 UI bound x50 1
 LI bound x51 0
 UI bound x51 1
 LI bound x52 0
 UI bound x52 1
 LI bound x53 0
 UI bound x53 1
 LI bound x54 0
 UI bound x54 1
 LI bound x55 0
 UI bound x55 1
 LI bound x56 0
 UI bound x56 1
 LI bound x57 0
 UI bound x57 1
 LI bound x58 0
 UI bound x58 1
 LI bound x59 0
 UI bound x59 1
 LI bound x60 0
 UI bound x60 1
 LI bound x61 0
 UI bound x61 1
 LI bound x62 0
 UI bound x62 1
 LI bound x63 0
 UI bound x63 1
 LI bound x64 0
 UI bound x64 1
 LI bound x65 0
 UI bound x65 1
 LI bound x66 0
 UI bound x66 1
 LI bound x67 0
 UI bound x67 1
 LI bound x68 0
 UI bound x68 1
 LI bound x69 0
 UI bound x69 1
 LI bound x70 0
 UI bound x70 1
 LI bound x71 0
 UI bound x71 1
 LI bound x72 0
 UI bound x72 1
 LI bound x73 0
 UI bound x73 1
 LI bound x74 0
 UI bound x74 1
 LI bound x75 0
 UI bound x75 1
 LI bound x76 0
 UI bound x76 1
 LI bound x77 0
 UI bound x77 1
 LI bound x78 0
 UI bound x78 1
 LI bound x79 0
 UI bound x79 1
 LI bound x80 0
 UI bound x80 1
 LI bound x81 0
 UI bound x81 1
 LI bound x82 0
 UI bound x82 1
 LI bound x83 0
 UI bound x83 1
 LI bound x84 0
 UI bound x84 1
 LI bound x85 0
 UI bound x85 1
 LI bound x86 0
 UI bound x86 1
 LI bound x87 0
 UI bound x87 1
 LI bound x88 0
 UI bound x88 1
 LI bound x89 0
 UI bound x89 1
 LI bound x90 0
 UI bound x90 1
 LI bound x91 0
 UI bound x91 1
 LI bound x92 0
 UI bound x92 1
 LI bound x93 0
 UI bound x93 1
 LI bound x94 0
 UI bound x94 1
 LI bound x95 0
 UI bound x95 1
 LI bound x96 0
 UI bound x96 1
 LI bound x97 0
 UI bound x97 1
 LI bound x98 0
 UI bound x98 1
 LI bound x99 0
 UI bound x99 1
 LI bound x100 0
 UI bound x100 1
 LI bound x101 0
 UI bound x101 1
 LI bound x102 0
 UI bound x102 1
 LI bound x103 0
 UI bound x103 1
 LI bound x104 0
 UI bound x104 1
 LI bound x105 0
 UI bound x105 1
 LI bound x106 0
 UI bound x106 1
 LI bound x107 0
 UI bound x107 1
 LI bound x108 0
 UI bound x108 1
 LI bound x109 0
 UI bound x109 1
 LI bound x110 0
 UI bound x110 1
 LI bound x111 0
 UI bound x111 1
 LI bound x112 0
 UI bound x112 1
 LI bound x113 0
 UI bound x113 1
 LI bound x114 0
 UI bound x114 1
 LI bound x115 0
 UI bound x115 1
 LI bound x116 0
 UI bound x116 1
 LI bound x117 0
 UI bound x117 1
 LI bound x118 0
 UI bound x118 1
 LI bound x119 0
 UI bound x119 1
 LI bound x120 0
 UI bound x120 1
 LI bound x121 0
 UI bound x121 1
 LI bound x122 0
 UI bound x122 1
 LI bound x123 0
 UI bound x123 1
 LI bound x124 0
 UI bound x124 1
 LI bound x125 0
 UI bound x125 1
 LI bound x126 0
 UI bound x126 1
 LI bound x127 0
 UI bound x127 1
 LI bound x128 0
 UI bound x128 1
 LI bound x129 0
 UI bound x129 1
 LI bound x130 0
 UI bound x130 1
 LI bound x131 0
 UI bound x131 1
 LI bound x132 0
 UI bound x132 1
 LI bound x133 0
 UI bound x133 1
 LI bound x134 0
 UI bound x134 1
 LI bound x135 0
 UI bound x135 1
 LI bound x136 0
 UI bound x136 1
 LI bound x137 0
 UI bound x137 1
 LI bound x138 0
 UI bound x138 1
 LI bound x139 0
 UI bound x139 1
 LI bound x140 0
 UI bound x140 1
 LI bound x141 0
 UI bound x141 1
 LI bound x142 0
 UI bound x142 1
 LI bound x143 0
 UI bound x143 1
 LI bound x144 0
 UI bound x144 1
 LI bound x145 0
 UI bound x145 1
 LI bound x146 0
 UI bound x146 1
 LI bound x147 0
 UI bound x147 1
 LI bound x148 0
 UI bound x148 1
 LI bound x149 0
 UI bound x149 1
 LI bound x150 0
 UI bound x150 1
 LI bound x151 0
 UI bound x151 1
 LI bound x152 0
 UI bound x152 1
 LI bound x153 0
 UI bound x153 1
 LI bound x154 0
 UI bound x154 1
 LI bound x155 0
 UI bound x155 1
 LI bound x156 0
 UI bound x156 1
 LI bound x157 0
 UI bound x157 1
 LI bound x158 0
 UI bound x158 1
 LI bound x159 0
 UI bound x159 1
 LI bound x160 0
 UI bound x160 1
 LI bound x161 0
 UI bound x161 1
 LI bound x162 0
 UI bound x162 1
 LI bound x163 0
 UI bound x163 1
 LI bound x164 0
 UI bound x164 1
 LI bound x165 0
 UI bound x165 1
 LI bound x166 0
 UI bound x166 1
 LI bound x167 0
 UI bound x167 1
 LI bound x168 0
 UI bound x168 1
 LI bound x169 0
 UI bound x169 1
 LI bound x170 0
 UI bound x170 1
 LI bound x171 0
 UI bound x171 1
 LI bound x172 0
 UI bound x172 1
 LI bound x173 0
 UI bound x173 1
 LI bound x174 0
 UI bound x174 1
 LI bound x175 0
 UI bound x175 1
 LI bound x176 0
 UI bound x176 1
 LI bound x177 0
 UI bound x177 1
 LI bound x178 0
 UI bound x178 1
 LI bound x179 0
 UI bound x179 1
 LI bound x180 0
 UI bound x180 1
 LI bound x181 0
 UI bound x181 1
 LI bound x182 0
 UI bound x182 1
 LI bound x183 0
 UI bound x183 1
 LI bound x184 0
 UI bound x184 1
 LI bound x185 0
 UI bound x185 1
 LI bound x186 0
 UI bound x186 1
 LI bound x187 0
 UI bound x187 1
 LI bound x188 0
 UI bound x188 1
 LI bound x189 0
 UI bound x189 1
 LI bound x190 0
 UI bound x190 1
 LI bound x191 0
 UI bound x191 1
 LI bound x192 0
 UI bound x192 1
 LI bound x193 0
 UI bound x193 1
 LI bound x194 0
 UI bound x194 1
 LI bound x195 0
 UI bound x195 1
 LI bound x196 0
 UI bound x196 1
 LI bound x197 0
 UI bound x197 1
 LI bound x198 0
 UI bound x198 1
 LI bound x199 0
 UI bound x199 1
 LI bound y0 0
 LI bound y1 0
 LI bound y2 0
 LI bound y3 0
 LI bound y4 0
 LI bound y5 0
 LI bound y6 0
 LI bound y7 0
 LI bound y8 0
 LI bound y9 0
 LI bound y10 0
 LI bound y11 0
 LI bound y12 0
 LI bound y13 0
 LI bound y14 0
 LI bound y15 0
 LI bound y16 0
 LI bound y17 0
 LI bound y18 0
 LI bound y19 0
 LI bound y20 0
 LI bound y21 0
 LI bound y22 0
 LI bound y23 0
 LI bound y24 0
 LI bound y25 0
 LI bound y26 0
 LI bound y27 0
 LI bound y28 0
 LI bound y29 0
 LI bound y30 0
 LI bound y31 0
 LI bound y32 0
 LI bound y33 0
 LI bound y34 0
 LI bound y35 0
 LI bound y36 0
 LI bound y37 0
 LI bound y38 0
 LI bound y39 0
 LI bound y40 0
 LI bound y41 0
 LI bound y42 0
 LI bound y43 0
 LI bound y44 0
 LI bound y45 0
 LI bound y46 0
 LI bound y47 0
 LI bound y48 0
 LI bound y49 0
 LI bound y50 0
 LI bound y51 0
 LI bound y52 0
 LI bound y53 0
 LI bound y54 0
 LI bound y55 0
 LI bound y56 0
 LI bound y57 0
 LI bound y58 0
 LI bound y59 0
 LI bound y60 0
 LI bound y61 0
 LI bound y62 0
 LI bound y63 0
 LI bound y64 0
 LI bound y65 0
 LI bound y66 0
 LI bound y67 0
 LI bound y68 0
 LI bound y69 0
 LI bound y70 0
 LI bound y71 0
 LI bound y72 0
 LI bound y73 0
 LI bound y74 0
 LI bound y75 0
 LI bound y76 0
 LI bound y77 0
 LI bound y78 0
 LI bound y79 0
 LI bound y80 0
 LI bound y81 0
 LI bound y82 0
 LI bound y83 0
 LI bound y84 0
 LI bound y85 0
 LI bound y86 0
 LI bound y87 0
 LI bound y88 0
 LI bound y89 0
 LI bound y90 0
 LI bound y91 0
 LI bound y92 0
 LI bound y93 0
 LI bound y94 0
 LI bound y95 0
 LI bound y96 0
 LI bound y97 0
 LI bound y98 0
 LI bound y99 0
 LI bound y100 0
 LI bound y101 0
 LI bound y102 0
 LI bound y103 0
 LI bound y104 0
 LI bound y105 0
 LI bound y106 0
 LI bound y107 0
 LI bound y108 0
 LI bound y109 0
 LI bound y110 0
 LI bound y111 0
 LI bound y112 0
 LI bound y113 0
 LI bound y114 0
 LI bound y115 0
 LI bound y116 0
 LI bound y117 0
 LI bound y118 0
 LI bound y119 0
 LI bound y120 0
 LI bound y121 0
 LI bound y122 0
 LI bound y123 0
 LI bound y124 0
 LI bound y125 0
 LI bound y126 0
 LI bound y127 0
 LI bound y128 0
 LI bound y129 0
 LI bound y130 0
 LI bound y131 0
 LI bound y132 0
 LI bound y133 0
 LI bound y134 0
 LI bound y135 0
 LI bound y136 0
 LI bound y137 0
 LI bound y138 0
 LI bound y139 0
 LI bound y140 0
 LI bound y141 0
 LI bound y142 0
 LI bound y143 0
 LI bound y144 0
 LI bound y145 0
 LI bound y146 0
 LI bound y147 0
 LI bound y148 0
 LI bound y149 0
 LI bound y150 0
 LI bound y151 0
 LI bound y152 0
 LI bound y153 0
 LI bound y154 0
 LI bound y155 0
 LI bound y156 0
 LI bound y157 0
 LI bound y158 0
 LI bound y159 0
 LI bound y160 0
 LI bound y161 0
 LI bound y162 0
 LI bound y163 0
 LI bound y164 0
 LI bound y165 0
 LI bound y166 0
 LI bound y167 0
 LI bound y168 0
 LI bound y169 0
 LI bound y170 0
 LI bound y171 0
 LI bound y172 0
 LI bound y173 0
 LI bound y174 0
 LI bound y175 0
 LI bound y176 0
 LI bound y177 0
 LI bound y178 0
 LI bound y179 0
 LI bound y180 0
 LI bound y181 0
 LI bound y182 0
 LI bound y183 0
 LI bound y184 0
 LI bound y185 0
 LI bound y186 0
 LI bound y187 0
 LI bound y188 0
 LI bound y189 0
 LI bound y190 0
 LI bound y191 0
 LI bound y192 0
 LI bound y193 0
 LI bound y194 0
 LI bound y195 0
 LI bound y196 0
 LI bound y197 0
 LI bound y198 0
 LI bound y199 0
ENDATA
